max_width = 15;
n_blocks = 25;
width = [7, 7, 6, 6, 3, 3, 3, 3, 3, 3, 3, 2, 2, 2, 2, 2, 2, 2, 2, 1, 1, 1, 1, 1, 1];
height = [12, 7, 12, 9, 16, 16, 10, 10, 9, 5, 5, 12, 7, 7, 6, 5, 5, 4, 3, 7, 6, 5, 5, 4, 3];
